p edge 100 495
e 1 8
e 1 13
e 1 18
e 1 20
e 1 27
e 1 36
e 1 53
e 1 96
e 2 9
e 2 31
e 2 33
e 2 58
e 2 64
e 2 65
e 2 75
e 2 79
e 2 80
e 2 84
e 2 93
e 3 25
e 3 42
e 3 46
e 3 69
e 3 84
e 3 86
e 3 95
e 4 6
e 4 8
e 4 16
e 4 19
e 4 38
e 4 40
e 4 49
e 4 60
e 4 67
e 4 90
e 5 6
e 5 11
e 5 14
e 5 31
e 5 47
e 5 54
e 5 68
e 5 70
e 5 77
e 5 87
e 5 93
e 5 96
e 6 7
e 6 20
e 6 24
e 6 28
e 6 37
e 6 41
e 6 44
e 6 49
e 6 62
e 6 81
e 7 17
e 7 46
e 7 61
e 7 77
e 7 87
e 7 89
e 7 90
e 8 16
e 8 34
e 8 40
e 8 43
e 8 52
e 8 54
e 8 60
e 8 93
e 8 95
e 9 12
e 9 51
e 9 95
e 9 99
e 10 33
e 10 39
e 10 53
e 10 68
e 10 70
e 10 76
e 10 84
e 10 86
e 10 90
e 10 98
e 11 15
e 11 21
e 11 26
e 11 59
e 11 64
e 12 34
e 12 60
e 12 62
e 12 71
e 12 72
e 12 79
e 12 95
e 13 24
e 13 26
e 13 29
e 13 31
e 13 37
e 13 45
e 13 57
e 13 61
e 13 66
e 13 83
e 13 89
e 13 90
e 13 98
e 14 26
e 14 32
e 14 41
e 14 53
e 14 54
e 14 94
e 14 97
e 15 17
e 15 24
e 15 54
e 15 56
e 15 63
e 15 76
e 15 78
e 15 100
e 16 17
e 16 29
e 16 39
e 16 40
e 16 43
e 16 63
e 16 72
e 16 75
e 16 81
e 16 87
e 16 90
e 17 22
e 17 35
e 17 73
e 17 75
e 17 79
e 17 97
e 18 21
e 18 22
e 18 30
e 18 54
e 18 60
e 18 68
e 18 72
e 18 73
e 18 95
e 19 36
e 19 38
e 19 40
e 19 48
e 19 61
e 19 75
e 19 76
e 19 81
e 19 90
e 20 31
e 20 34
e 20 39
e 20 51
e 20 69
e 20 74
e 20 80
e 20 87
e 20 91
e 20 94
e 20 99
e 21 27
e 21 46
e 21 62
e 21 63
e 21 64
e 21 70
e 21 71
e 21 80
e 21 84
e 21 88
e 22 43
e 22 92
e 22 97
e 23 30
e 23 49
e 23 52
e 23 53
e 23 63
e 23 70
e 23 92
e 24 30
e 24 40
e 24 49
e 24 66
e 24 70
e 24 76
e 24 84
e 24 85
e 24 87
e 24 92
e 24 94
e 25 26
e 25 28
e 25 31
e 25 38
e 25 48
e 25 53
e 25 54
e 25 59
e 25 96
e 26 28
e 26 40
e 26 46
e 26 48
e 26 74
e 26 92
e 26 96
e 27 37
e 27 41
e 27 43
e 27 57
e 27 59
e 27 68
e 27 78
e 27 93
e 27 97
e 28 31
e 28 33
e 28 45
e 28 58
e 28 61
e 28 64
e 28 71
e 29 45
e 29 62
e 29 70
e 29 79
e 29 84
e 29 90
e 30 35
e 30 38
e 30 47
e 30 63
e 30 78
e 30 80
e 30 84
e 30 100
e 31 49
e 31 51
e 31 73
e 31 81
e 31 88
e 32 42
e 32 57
e 32 67
e 32 94
e 32 95
e 32 96
e 32 97
e 33 46
e 33 58
e 33 67
e 33 70
e 33 80
e 33 81
e 33 86
e 33 87
e 34 58
e 34 61
e 34 82
e 34 95
e 35 40
e 35 52
e 35 62
e 35 72
e 35 73
e 35 76
e 35 98
e 36 37
e 36 68
e 36 100
e 37 38
e 37 57
e 37 60
e 37 61
e 37 62
e 37 66
e 37 76
e 37 82
e 38 50
e 38 64
e 38 67
e 38 68
e 38 71
e 38 76
e 38 77
e 38 78
e 38 83
e 39 43
e 39 52
e 39 77
e 39 78
e 40 80
e 40 87
e 41 49
e 41 51
e 41 65
e 41 69
e 41 77
e 41 85
e 41 98
e 42 52
e 42 59
e 42 69
e 42 76
e 42 79
e 42 97
e 43 66
e 43 68
e 43 84
e 43 95
e 44 47
e 44 53
e 44 57
e 44 73
e 44 76
e 44 78
e 44 88
e 44 91
e 44 95
e 45 52
e 45 60
e 45 65
e 45 80
e 46 50
e 46 51
e 46 53
e 46 56
e 46 57
e 46 80
e 46 84
e 46 94
e 47 58
e 47 75
e 47 88
e 48 57
e 48 60
e 48 63
e 48 79
e 48 83
e 48 87
e 48 89
e 48 90
e 48 100
e 49 56
e 49 72
e 49 80
e 49 82
e 49 94
e 50 62
e 50 67
e 50 91
e 50 96
e 50 97
e 51 56
e 51 62
e 51 66
e 51 69
e 51 89
e 52 58
e 52 62
e 52 67
e 52 88
e 52 94
e 52 96
e 52 100
e 53 64
e 53 78
e 53 93
e 53 97
e 54 58
e 54 62
e 54 75
e 54 79
e 54 84
e 55 63
e 55 67
e 55 80
e 56 76
e 56 77
e 57 58
e 57 66
e 57 69
e 57 80
e 57 87
e 57 97
e 58 61
e 58 69
e 58 87
e 58 88
e 59 69
e 59 85
e 59 93
e 60 71
e 60 100
e 61 63
e 61 64
e 61 66
e 61 72
e 61 81
e 61 86
e 62 78
e 62 79
e 62 89
e 62 97
e 63 64
e 63 72
e 63 76
e 63 77
e 63 78
e 63 81
e 63 84
e 64 65
e 64 67
e 64 69
e 64 95
e 65 67
e 65 73
e 65 75
e 65 78
e 65 86
e 65 99
e 66 78
e 66 79
e 66 82
e 66 96
e 67 82
e 67 85
e 67 87
e 67 90
e 68 80
e 68 88
e 68 96
e 69 85
e 69 90
e 69 91
e 69 95
e 69 97
e 70 73
e 70 76
e 70 79
e 70 99
e 71 76
e 71 79
e 71 88
e 71 97
e 72 73
e 73 77
e 73 79
e 73 92
e 75 84
e 75 95
e 75 99
e 76 88
e 77 78
e 77 81
e 77 84
e 78 81
e 78 85
e 78 97
e 78 98
e 79 80
e 79 94
e 80 84
e 80 91
e 80 92
e 81 91
e 81 98
e 83 91
e 83 92
e 84 85
e 85 92
e 85 98
e 87 96
e 89 92
e 89 93
e 89 97
e 91 100
e 92 94
e 92 99
e 95 99
